25 50
1 2 1
1 6 5
2 3 2
2 7 5
3 4 1
3 8 2
4 5 5
4 9 5
5 10 1
6 7 3
6 11 5
7 8 5
7 12 5
8 9 3
8 13 4
9 10 5
9 14 1
10 15 5
11 12 4
11 16 5
12 13 2
12 17 1
13 14 4
13 18 4
14 15 2
14 19 1
15 20 4
16 17 4
16 21 3
17 18 3
17 22 1
18 19 3
18 23 4
19 20 1
19 24 2
20 25 3
21 22 2
22 23 1
23 24 4
24 25 4
1 21 4
2 22 3
3 23 5
4 24 2
5 25 3
1 5 3
6 10 2
11 15 4
16 20 2
21 25 3
